6	2	2	7	0	0	0	0	0	0	0	0	0	0	0	0	0	0	2	0	0
6	2	2	8	0	0	0	0	0	0	0	0	0	0	0	0	0	0	2	0	0
6	2	2	9	0	0	0	0	0	0	0	0	0	0	0	0	0	0	2	0	0
6	2	2	10	0	0	0	0	0	0	0	0	0	0	0	0	0	0	2	0	0
6	2	2	11	0	0	0	0	0	0	0	0	0	0	0	0	0	0	2	0	0
6	2	2	12	0	0	0	0	0	0	0	0	0	0	0	0	0	0	2	0	0
6	2	2	13	0	0	0	0	0	0	0	0	0	0	0	0	0	0	2	0	0
6	2	2	14	0	0	0	0	0	0	0	0	0	0	0	0	0	0	2	0	0
6	3	2	8	0	0	0	0	0	0	0	0	0	0	0	0	0	0	2	0	0
6	3	2	9	0	0	0	0	0	0	0	0	0	0	0	0	0	0	2	0	0
6	3	2	10	0	0	0	0	0	0	0	0	0	0	0	0	0	0	2	0	0
6	3	2	11	0	0	0	0	0	0	0	0	0	0	0	0	0	0	2	0	0
6	3	2	12	0	0	0	0	0	0	0	0	0	0	0	0	0	0	2	0	0
6	3	2	13	0	0	0	0	0	0	0	0	0	0	0	0	0	0	2	0	0
6	3	2	14	0	0	0	0	0	0	0	0	0	0	0	0	0	0	2	0	0
6	3	2	15	0	0	0	0	0	0	0	0	0	0	0	0	0	0	2	0	0
6	4	2	9	0	0	0	0	0	0	0	0	0	0	0	0	0	0	2	0	0
6	4	2	10	0	0	0	0	0	0	0	0	0	0	0	0	0	0	2	0	0
6	4	2	11	0	0	0	0	0	0	0	0	0	0	0	0	0	0	2	0	0
6	4	2	12	0	0	0	0	0	0	0	0	0	0	0	0	0	0	2	0	0
6	4	2	13	0	0	0	0	0	0	0	0	0	0	0	0	0	0	2	0	0
6	4	2	14	0	0	0	0	0	0	0	0	0	0	0	0	0	0	2	0	0
6	4	2	15	0	0	0	0	0	0	0	0	0	0	0	0	0	0	2	0	0
6	4	2	16	0	0	0	0	0	0	0	0	0	0	0	0	0	0	2	0	0
6	5	2	10	0	0	0	0	0	0	0	0	0	0	0	0	0	0	2	0	0
6	5	2	11	0	0	0	0	0	0	0	0	0	0	0	0	0	0	2	0	0
6	5	2	12	0	0	0	0	0	0	0	0	0	0	0	0	0	0	2	0	0
6	5	2	13	0	0	0	0	0	0	0	0	0	0	0	0	0	0	2	0	0
6	5	2	14	0	0	0	0	0	0	0	0	0	0	0	0	0	0	2	0	0
6	5	2	15	0	0	0	0	0	0	0	0	0	0	0	0	0	0	2	0	0
6	5	2	16	0	0	0	0	0	0	0	0	0	0	0	0	0	0	2	0	0
6	5	2	17	0	0	0	0	0	0	0	0	0	0	0	0	0	0	2	0	0
6	6	2	11	0	0	0	0	0	0	0	0	0	0	0	0	0	0	2	0	0
6	6	2	12	0	0	0	0	0	0	0	0	0	0	0	0	0	0	2	0	0
6	6	2	13	0	0	0	0	0	0	0	0	0	0	0	0	0	0	2	0	0
6	6	2	14	0	0	0	0	0	0	0	0	0	0	0	0	0	0	2	0	0
6	6	2	15	0	0	0	0	0	0	0	0	0	0	0	0	0	0	2	0	0
6	6	2	16	0	0	0	0	0	0	0	0	0	0	0	0	0	0	2	0	0
6	6	2	17	0	0	0	0	0	0	0	0	0	0	0	0	0	0	2	0	0
6	6	2	18	0	0	0	0	0	0	0	0	0	0	0	0	0	0	2	0	0
6	7	2	12	0	0	0	0	0	0	0	0	0	0	0	0	0	0	2	0	0
6	7	2	13	0	0	0	0	0	0	0	0	0	0	0	0	0	0	2	0	0
6	7	2	14	0	0	0	0	0	0	0	0	0	0	0	0	0	0	2	0	0
6	7	2	15	0	0	0	0	0	0	0	0	0	0	0	0	0	0	2	0	0
6	7	2	16	0	0	0	0	0	0	0	0	0	0	0	0	0	0	2	0	0
6	7	2	17	0	0	0	0	0	0	0	0	0	0	0	0	0	0	2	0	0
6	7	2	18	0	0	0	0	0	0	0	0	0	0	0	0	0	0	2	0	0
6	7	2	19	0	0	0	0	0	0	0	0	0	0	0	0	0	0	2	0	0
6	8	2	13	0	0	0	0	0	0	0	0	0	0	0	0	0	0	2	0	0
6	8	2	14	0	0	0	0	0	0	0	0	0	0	0	0	0	0	2	0	0
6	8	2	15	0	0	0	0	0	0	0	0	0	0	0	0	0	0	2	0	0
6	8	2	16	0	0	0	0	0	0	0	0	0	0	0	0	0	0	2	0	0
6	8	2	17	0	0	0	0	0	0	0	0	0	0	0	0	0	0	2	0	0
6	8	2	18	0	0	0	0	0	0	0	0	0	0	0	0	0	0	2	0	0
6	8	2	19	0	0	0	0	0	0	0	0	0	0	0	0	0	0	2	0	0
6	8	2	20	0	0	0	0	0	0	0	0	0	0	0	0	0	0	2	0	0
6	9	2	14	0	0	0	0	0	0	0	0	0	0	0	0	0	0	2	0	0
6	9	2	15	0	0	0	0	0	0	0	0	0	0	0	0	0	0	2	0	0
6	9	2	16	0	0	0	0	0	0	0	0	0	0	0	0	0	0	2	0	0
6	9	2	17	0	0	0	0	0	0	0	0	0	0	0	0	0	0	2	0	0
6	9	2	18	0	0	0	0	0	0	0	0	0	0	0	0	0	0	2	0	0
6	9	2	19	0	0	0	0	0	0	0	0	0	0	0	0	0	0	2	0	0
6	9	2	20	0	0	0	0	0	0	0	0	0	0	0	0	0	0	2	0	0
6	9	2	21	0	0	0	0	0	0	0	0	0	0	0	0	0	0	2	0	0
6	10	2	15	0	0	0	0	0	0	0	0	0	0	0	0	0	0	2	0	0
6	10	2	16	0	0	0	0	0	0	0	0	0	0	0	0	0	0	2	0	0
6	10	2	17	0	0	0	0	0	0	0	0	0	0	0	0	0	0	2	0	0
6	10	2	18	0	0	0	0	0	0	0	0	0	0	0	0	0	0	2	0	0
6	10	2	19	0	0	0	0	0	0	0	0	0	0	0	0	0	0	2	0	0
6	10	2	20	0	0	0	0	0	0	0	0	0	0	0	0	0	0	2	0	0
6	10	2	21	0	0	0	0	0	0	0	0	0	0	0	0	0	0	2	0	0
6	10	2	22	0	0	0	0	0	0	0	0	0	0	0	0	0	0	2	0	0
6	11	2	16	0	0	0	0	0	0	0	0	0	0	0	0	0	0	2	0	0
6	11	2	17	0	0	0	0	0	0	0	0	0	0	0	0	0	0	2	0	0
6	11	2	18	0	0	0	0	0	0	0	0	0	0	0	0	0	0	2	0	0
6	11	2	19	0	0	0	0	0	0	0	0	0	0	0	0	0	0	2	0	0
6	11	2	20	0	0	0	0	0	0	0	0	0	0	0	0	0	0	2	0	0
6	11	2	21	0	0	0	0	0	0	0	0	0	0	0	0	0	0	2	0	0
6	11	2	22	0	0	0	0	0	0	0	0	0	0	0	0	0	0	2	0	0
6	11	2	23	0	0	0	0	0	0	0	0	0	0	0	0	0	0	2	0	0
6	12	2	17	0	0	0	0	0	0	0	0	0	0	0	0	0	0	2	0	0
6	12	2	18	0	0	0	0	0	0	0	0	0	0	0	0	0	0	2	0	0
6	12	2	19	0	0	0	0	0	0	0	0	0	0	0	0	0	0	2	0	0
6	12	2	20	0	0	0	0	0	0	0	0	0	0	0	0	0	0	2	0	0
6	12	2	21	0	0	0	0	0	0	0	0	0	0	0	0	0	0	2	0	0
6	12	2	22	0	0	0	0	0	0	0	0	0	0	0	0	0	0	2	0	0
6	12	2	23	0	0	0	0	0	0	0	0	0	0	0	0	0	0	2	0	0
6	12	2	24	0	0	0	0	0	0	0	0	0	0	0	0	0	0	2	0	0
6	13	2	18	0	0	0	0	0	0	0	0	0	0	0	0	0	0	2	0	0
6	13	2	19	0	0	0	0	0	0	0	0	0	0	0	0	0	0	2	0	0
6	13	2	20	0	0	0	0	0	0	0	0	0	0	0	0	0	0	2	0	0
6	13	2	21	0	0	0	0	0	0	0	0	0	0	0	0	0	0	2	0	0
6	13	2	22	0	0	0	0	0	0	0	0	0	0	0	0	0	0	2	0	0
6	13	2	23	0	0	0	0	0	0	0	0	0	0	0	0	0	0	2	0	0
6	13	2	24	0	0	0	0	0	0	0	0	0	0	0	0	0	0	2	0	0
6	13	2	25	0	0	0	0	0	0	0	0	0	0	0	0	0	0	2	0	0
6	14	2	19	0	0	0	0	0	0	0	0	0	0	0	0	0	0	2	0	0
6	14	2	20	0	0	0	0	0	0	0	0	0	0	0	0	0	0	2	0	0
6	14	2	21	0	0	0	0	0	0	0	0	0	0	0	0	0	0	2	0	0
6	14	2	22	0	0	0	0	0	0	0	0	0	0	0	0	0	0	2	0	0
6	14	2	23	0	0	0	0	0	0	0	0	0	0	0	0	0	0	2	0	0
6	14	2	24	0	0	0	0	0	0	0	0	0	0	0	0	0	0	2	0	0
6	14	2	25	0	0	0	0	0	0	0	0	0	0	0	0	0	0	2	0	0
6	14	2	26	0	0	0	0	0	0	0	0	0	0	0	0	0	0	2	0	0
6	15	2	20	0	0	0	0	0	0	0	0	0	0	0	0	0	0	2	0	0
6	15	2	21	0	0	0	0	0	0	0	0	0	0	0	0	0	0	2	0	0
6	15	2	22	0	0	0	0	0	0	0	0	0	0	0	0	0	0	2	0	0
6	15	2	23	0	0	0	0	0	0	0	0	0	0	0	0	0	0	2	0	0
6	15	2	24	0	0	0	0	0	0	0	0	0	0	0	0	0	0	2	0	0
6	15	2	25	0	0	0	0	0	0	0	0	0	0	0	0	0	0	2	0	0
6	15	2	26	0	0	0	0	0	0	0	0	0	0	0	0	0	0	2	0	0
6	15	2	27	0	0	0	0	0	0	0	0	0	0	0	0	0	0	2	0	0
6	16	2	21	0	0	0	0	0	0	0	0	0	0	0	0	0	0	2	0	0
6	16	2	22	0	0	0	0	0	0	0	0	0	0	0	0	0	0	2	0	0
6	16	2	23	0	0	0	0	0	0	0	0	0	0	0	0	0	0	2	0	0
6	16	2	24	0	0	0	0	0	0	0	0	0	0	0	0	0	0	2	0	0
6	16	2	25	0	0	0	0	0	0	0	0	0	0	0	0	0	0	2	0	0
6	16	2	26	0	0	0	0	0	0	0	0	0	0	0	0	0	0	2	0	0
6	16	2	27	0	0	0	0	0	0	0	0	0	0	0	0	0	0	2	0	0
6	16	2	28	0	0	0	0	0	0	0	0	0	0	0	0	0	0	2	0	0
6	17	2	22	0	0	0	0	0	0	0	0	0	0	0	0	0	0	2	0	0
6	17	2	23	0	0	0	0	0	0	0	0	0	0	0	0	0	0	2	0	0
6	17	2	24	0	0	0	0	0	0	0	0	0	0	0	0	0	0	2	0	0
6	17	2	25	0	0	0	0	0	0	0	0	0	0	0	0	0	0	2	0	0
6	17	2	26	0	0	0	0	0	0	0	0	0	0	0	0	0	0	2	0	0
6	17	2	27	0	0	0	0	0	0	0	0	0	0	0	0	0	0	2	0	0
6	17	2	28	0	0	0	0	0	0	0	0	0	0	0	0	0	0	2	0	0
6	17	2	29	0	0	0	0	0	0	0	0	0	0	0	0	0	0	2	0	0
6	18	2	23	0	0	0	0	0	0	0	0	0	0	0	0	0	0	2	0	0
6	18	2	24	0	0	0	0	0	0	0	0	0	0	0	0	0	0	2	0	0
6	18	2	25	0	0	0	0	0	0	0	0	0	0	0	0	0	0	2	0	0
6	18	2	26	0	0	0	0	0	0	0	0	0	0	0	0	0	0	2	0	0
6	18	2	27	0	0	0	0	0	0	0	0	0	0	0	0	0	0	2	0	0
6	18	2	28	0	0	0	0	0	0	0	0	0	0	0	0	0	0	2	0	0
6	18	2	29	0	0	0	0	0	0	0	0	0	0	0	0	0	0	2	0	0
6	18	2	30	0	0	0	0	0	0	0	0	0	0	0	0	0	0	2	0	0
6	19	2	24	0	0	0	0	0	0	0	0	0	0	0	0	0	0	2	0	0
6	19	2	25	0	0	0	0	0	0	0	0	0	0	0	0	0	0	2	0	0
6	19	2	26	0	0	0	0	0	0	0	0	0	0	0	0	0	0	2	0	0
6	19	2	27	0	0	0	0	0	0	0	0	0	0	0	0	0	0	2	0	0
6	19	2	28	0	0	0	0	0	0	0	0	0	0	0	0	0	0	2	0	0
6	19	2	29	0	0	0	0	0	0	0	0	0	0	0	0	0	0	2	0	0
6	19	2	30	0	0	0	0	0	0	0	0	0	0	0	0	0	0	2	0	0
6	19	2	31	0	0	0	0	0	0	0	0	0	0	0	0	0	0	2	0	0
6	20	2	25	0	0	0	0	0	0	0	0	0	0	0	0	0	0	2	0	0
6	20	2	26	0	0	0	0	0	0	0	0	0	0	0	0	0	0	2	0	0
6	20	2	27	0	0	0	0	0	0	0	0	0	0	0	0	0	0	2	0	0
6	20	2	28	0	0	0	0	0	0	0	0	0	0	0	0	0	0	2	0	0
6	20	2	29	0	0	0	0	0	0	0	0	0	0	0	0	0	0	2	0	0
6	20	2	30	0	0	0	0	0	0	0	0	0	0	0	0	0	0	2	0	0
6	20	2	31	0	0	0	0	0	0	0	0	0	0	0	0	0	0	2	0	0
6	20	2	32	0	0	0	0	0	0	0	0	0	0	0	0	0	0	2	0	0
6	21	2	26	0	0	0	0	0	0	0	0	0	0	0	0	0	0	2	0	0
6	21	2	27	0	0	0	0	0	0	0	0	0	0	0	0	0	0	2	0	0
6	21	2	28	0	0	0	0	0	0	0	0	0	0	0	0	0	0	2	0	0
6	21	2	29	0	0	0	0	0	0	0	0	0	0	0	0	0	0	2	0	0
6	21	2	30	0	0	0	0	0	0	0	0	0	0	0	0	0	0	2	0	0
6	21	2	31	0	0	0	0	0	0	0	0	0	0	0	0	0	0	2	0	0
6	21	2	32	0	0	0	0	0	0	0	0	0	0	0	0	0	0	2	0	0
6	21	2	33	0	0	0	0	0	0	0	0	0	0	0	0	0	0	2	0	0
6	22	2	27	0	0	0	0	0	0	0	0	0	0	0	0	0	0	2	0	0
6	22	2	28	0	0	0	0	0	0	0	0	0	0	0	0	0	0	2	0	0
6	22	2	29	0	0	0	0	0	0	0	0	0	0	0	0	0	0	2	0	0
6	22	2	30	0	0	0	0	0	0	0	0	0	0	0	0	0	0	2	0	0
6	22	2	31	0	0	0	0	0	0	0	0	0	0	0	0	0	0	2	0	0
6	22	2	32	0	0	0	0	0	0	0	0	0	0	0	0	0	0	2	0	0
6	22	2	33	0	0	0	0	0	0	0	0	0	0	0	0	0	0	2	0	0
6	22	2	34	0	0	0	0	0	0	0	0	0	0	0	0	0	0	2	0	0
6	23	2	28	0	0	0	0	0	0	0	0	0	0	0	0	0	0	2	0	0
6	23	2	29	0	0	0	0	0	0	0	0	0	0	0	0	0	0	2	0	0
6	23	2	30	0	0	0	0	0	0	0	0	0	0	0	0	0	0	2	0	0
6	23	2	31	0	0	0	0	0	0	0	0	0	0	0	0	0	0	2	0	0
6	23	2	32	0	0	0	0	0	0	0	0	0	0	0	0	0	0	2	0	0
6	23	2	33	0	0	0	0	0	0	0	0	0	0	0	0	0	0	2	0	0
6	23	2	34	0	0	0	0	0	0	0	0	0	0	0	0	0	0	2	0	0
6	23	2	35	0	0	0	0	0	0	0	0	0	0	0	0	0	0	2	0	0
6	24	2	29	0	0	0	0	0	0	0	0	0	0	0	0	0	0	2	0	0
6	24	2	30	0	0	0	0	0	0	0	0	0	0	0	0	0	0	2	0	0
6	24	2	31	0	0	0	0	0	0	0	0	0	0	0	0	0	0	2	0	0
6	24	2	32	0	0	0	0	0	0	0	0	0	0	0	0	0	0	2	0	0
6	24	2	33	0	0	0	0	0	0	0	0	0	0	0	0	0	0	2	0	0
6	24	2	34	0	0	0	0	0	0	0	0	0	0	0	0	0	0	2	0	0
6	24	2	35	0	0	0	0	0	0	0	0	0	0	0	0	0	0	2	0	0
6	24	2	36	0	0	0	0	0	0	0	0	0	0	0	0	0	0	2	0	0
6	25	2	30	0	0	0	0	0	0	0	0	0	0	0	0	0	0	2	0	0
6	25	2	31	0	0	0	0	0	0	0	0	0	0	0	0	0	0	2	0	0
6	25	2	32	0	0	0	0	0	0	0	0	0	0	0	0	0	0	2	0	0
6	25	2	33	0	0	0	0	0	0	0	0	0	0	0	0	0	0	2	0	0
6	25	2	34	0	0	0	0	0	0	0	0	0	0	0	0	0	0	2	0	0
6	25	2	35	0	0	0	0	0	0	0	0	0	0	0	0	0	0	2	0	0
6	25	2	36	0	0	0	0	0	0	0	0	0	0	0	0	0	0	2	0	0
6	25	2	37	0	0	0	0	0	0	0	0	0	0	0	0	0	0	2	0	0
6	26	2	31	0	0	0	0	0	0	0	0	0	0	0	0	0	0	2	0	0
6	26	2	32	0	0	0	0	0	0	0	0	0	0	0	0	0	0	2	0	0
6	26	2	33	0	0	0	0	0	0	0	0	0	0	0	0	0	0	2	0	0
6	26	2	34	0	0	0	0	0	0	0	0	0	0	0	0	0	0	2	0	0
6	26	2	35	0	0	0	0	0	0	0	0	0	0	0	0	0	0	2	0	0
6	26	2	36	0	0	0	0	0	0	0	0	0	0	0	0	0	0	2	0	0
6	26	2	37	0	0	0	0	0	0	0	0	0	0	0	0	0	0	2	0	0
6	26	2	38	0	0	0	0	0	0	0	0	0	0	0	0	0	0	2	0	0
6	27	2	32	0	0	0	0	0	0	0	0	0	0	0	0	0	0	2	0	0
6	27	2	33	0	0	0	0	0	0	0	0	0	0	0	0	0	0	2	0	0
6	27	2	34	0	0	0	0	0	0	0	0	0	0	0	0	0	0	2	0	0
6	27	2	35	0	0	0	0	0	0	0	0	0	0	0	0	0	0	2	0	0
6	27	2	36	0	0	0	0	0	0	0	0	0	0	0	0	0	0	2	0	0
6	27	2	37	0	0	0	0	0	0	0	0	0	0	0	0	0	0	2	0	0
6	27	2	38	0	0	0	0	0	0	0	0	0	0	0	0	0	0	2	0	0
6	27	2	39	0	0	0	0	0	0	0	0	0	0	0	0	0	0	2	0	0
6	28	2	33	0	0	0	0	0	0	0	0	0	0	0	0	0	0	2	0	0
6	28	2	34	0	0	0	0	0	0	0	0	0	0	0	0	0	0	2	0	0
6	28	2	35	0	0	0	0	0	0	0	0	0	0	0	0	0	0	2	0	0
6	28	2	36	0	0	0	0	0	0	0	0	0	0	0	0	0	0	2	0	0
6	28	2	37	0	0	0	0	0	0	0	0	0	0	0	0	0	0	2	0	0
6	28	2	38	0	0	0	0	0	0	0	0	0	0	0	0	0	0	2	0	0
6	28	2	39	0	0	0	0	0	0	0	0	0	0	0	0	0	0	2	0	0
6	28	2	40	0	0	0	0	0	0	0	0	0	0	0	0	0	0	2	0	0
6	29	2	34	0	0	0	0	0	0	0	0	0	0	0	0	0	0	2	0	0
6	29	2	35	0	0	0	0	0	0	0	0	0	0	0	0	0	0	2	0	0
6	29	2	36	0	0	0	0	0	0	0	0	0	0	0	0	0	0	2	0	0
6	29	2	37	0	0	0	0	0	0	0	0	0	0	0	0	0	0	2	0	0
6	29	2	38	0	0	0	0	0	0	0	0	0	0	0	0	0	0	2	0	0
6	29	2	39	0	0	0	0	0	0	0	0	0	0	0	0	0	0	2	0	0
6	29	2	40	0	0	0	0	0	0	0	0	0	0	0	0	0	0	2	0	0
6	29	2	41	0	0	0	0	0	0	0	0	0	0	0	0	0	0	2	0	0
6	30	2	35	0	0	0	0	0	0	0	0	0	0	0	0	0	0	2	0	0
6	30	2	36	0	0	0	0	0	0	0	0	0	0	0	0	0	0	2	0	0
6	30	2	37	0	0	0	0	0	0	0	0	0	0	0	0	0	0	2	0	0
6	30	2	38	0	0	0	0	0	0	0	0	0	0	0	0	0	0	2	0	0
6	30	2	39	0	0	0	0	0	0	0	0	0	0	0	0	0	0	2	0	0
6	30	2	40	0	0	0	0	0	0	0	0	0	0	0	0	0	0	2	0	0
6	30	2	41	0	0	0	0	0	0	0	0	0	0	0	0	0	0	2	0	0
6	30	2	42	0	0	0	0	0	0	0	0	0	0	0	0	0	0	2	0	0
6	31	2	36	0	0	0	0	0	0	0	0	0	0	0	0	0	0	2	0	0
6	31	2	37	0	0	0	0	0	0	0	0	0	0	0	0	0	0	2	0	0
6	31	2	38	0	0	0	0	0	0	0	0	0	0	0	0	0	0	2	0	0
6	31	2	39	0	0	0	0	0	0	0	0	0	0	0	0	0	0	2	0	0
6	31	2	40	0	0	0	0	0	0	0	0	0	0	0	0	0	0	2	0	0
6	31	2	41	0	0	0	0	0	0	0	0	0	0	0	0	0	0	2	0	0
6	31	2	42	0	0	0	0	0	0	0	0	0	0	0	0	0	0	2	0	0
6	31	2	43	0	0	0	0	0	0	0	0	0	0	0	0	0	0	2	0	0
6	32	2	37	0	0	0	0	0	0	0	0	0	0	0	0	0	0	2	0	0
6	32	2	38	0	0	0	0	0	0	0	0	0	0	0	0	0	0	2	0	0
6	32	2	39	0	0	0	0	0	0	0	0	0	0	0	0	0	0	2	0	0
6	32	2	40	0	0	0	0	0	0	0	0	0	0	0	0	0	0	2	0	0
6	32	2	41	0	0	0	0	0	0	0	0	0	0	0	0	0	0	2	0	0
6	32	2	42	0	0	0	0	0	0	0	0	0	0	0	0	0	0	2	0	0
6	32	2	43	0	0	0	0	0	0	0	0	0	0	0	0	0	0	2	0	0
6	32	2	44	0	0	0	0	0	0	0	0	0	0	0	0	0	0	2	0	0
6	33	2	38	0	0	0	0	0	0	0	0	0	0	0	0	0	0	2	0	0
6	33	2	39	0	0	0	0	0	0	0	0	0	0	0	0	0	0	2	0	0
6	33	2	40	0	0	0	0	0	0	0	0	0	0	0	0	0	0	2	0	0
6	33	2	41	0	0	0	0	0	0	0	0	0	0	0	0	0	0	2	0	0
6	33	2	42	0	0	0	0	0	0	0	0	0	0	0	0	0	0	2	0	0
6	33	2	43	0	0	0	0	0	0	0	0	0	0	0	0	0	0	2	0	0
6	33	2	44	0	0	0	0	0	0	0	0	0	0	0	0	0	0	2	0	0
6	33	2	45	0	0	0	0	0	0	0	0	0	0	0	0	0	0	2	0	0
6	34	2	39	0	0	0	0	0	0	0	0	0	0	0	0	0	0	2	0	0
6	34	2	40	0	0	0	0	0	0	0	0	0	0	0	0	0	0	2	0	0
6	34	2	41	0	0	0	0	0	0	0	0	0	0	0	0	0	0	2	0	0
6	34	2	42	0	0	0	0	0	0	0	0	0	0	0	0	0	0	2	0	0
6	34	2	43	0	0	0	0	0	0	0	0	0	0	0	0	0	0	2	0	0
6	34	2	44	0	0	0	0	0	0	0	0	0	0	0	0	0	0	2	0	0
6	34	2	45	0	0	0	0	0	0	0	0	0	0	0	0	0	0	2	0	0
6	34	2	46	0	0	0	0	0	0	0	0	0	0	0	0	0	0	2	0	0
6	35	2	40	0	0	0	0	0	0	0	0	0	0	0	0	0	0	2	0	0
6	35	2	41	0	0	0	0	0	0	0	0	0	0	0	0	0	0	2	0	0
6	35	2	42	0	0	0	0	0	0	0	0	0	0	0	0	0	0	2	0	0
6	35	2	43	0	0	0	0	0	0	0	0	0	0	0	0	0	0	2	0	0
6	35	2	44	0	0	0	0	0	0	0	0	0	0	0	0	0	0	2	0	0
6	35	2	45	0	0	0	0	0	0	0	0	0	0	0	0	0	0	2	0	0
6	35	2	46	0	0	0	0	0	0	0	0	0	0	0	0	0	0	2	0	0
6	35	2	47	0	0	0	0	0	0	0	0	0	0	0	0	0	0	2	0	0
6	36	2	41	0	0	0	0	0	0	0	0	0	0	0	0	0	0	2	0	0
6	36	2	42	0	0	0	0	0	0	0	0	0	0	0	0	0	0	2	0	0
6	36	2	43	0	0	0	0	0	0	0	0	0	0	0	0	0	0	2	0	0
6	36	2	44	0	0	0	0	0	0	0	0	0	0	0	0	0	0	2	0	0
6	36	2	45	0	0	0	0	0	0	0	0	0	0	0	0	0	0	2	0	0
6	36	2	46	0	0	0	0	0	0	0	0	0	0	0	0	0	0	2	0	0
6	36	2	47	0	0	0	0	0	0	0	0	0	0	0	0	0	0	2	0	0
6	36	2	48	0	0	0	0	0	0	0	0	0	0	0	0	0	0	2	0	0
6	37	2	42	0	0	0	0	0	0	0	0	0	0	0	0	0	0	2	0	0
6	37	2	43	0	0	0	0	0	0	0	0	0	0	0	0	0	0	2	0	0
6	37	2	44	0	0	0	0	0	0	0	0	0	0	0	0	0	0	2	0	0
6	37	2	45	0	0	0	0	0	0	0	0	0	0	0	0	0	0	2	0	0
6	37	2	46	0	0	0	0	0	0	0	0	0	0	0	0	0	0	2	0	0
6	37	2	47	0	0	0	0	0	0	0	0	0	0	0	0	0	0	2	0	0
6	37	2	48	0	0	0	0	0	0	0	0	0	0	0	0	0	0	2	0	0
6	37	2	49	0	0	0	0	0	0	0	0	0	0	0	0	0	0	2	0	0
6	38	2	43	0	0	0	0	0	0	0	0	0	0	0	0	0	0	2	0	0
6	38	2	44	0	0	0	0	0	0	0	0	0	0	0	0	0	0	2	0	0
6	38	2	45	0	0	0	0	0	0	0	0	0	0	0	0	0	0	2	0	0
6	38	2	46	0	0	0	0	0	0	0	0	0	0	0	0	0	0	2	0	0
6	38	2	47	0	0	0	0	0	0	0	0	0	0	0	0	0	0	2	0	0
6	38	2	48	0	0	0	0	0	0	0	0	0	0	0	0	0	0	2	0	0
6	38	2	49	0	0	0	0	0	0	0	0	0	0	0	0	0	0	2	0	0
6	38	2	50	0	0	0	0	0	0	0	0	0	0	0	0	0	0	2	0	0
6	39	2	44	0	0	0	0	0	0	0	0	0	0	0	0	0	0	2	0	0
6	39	2	45	0	0	0	0	0	0	0	0	0	0	0	0	0	0	2	0	0
6	39	2	46	0	0	0	0	0	0	0	0	0	0	0	0	0	0	2	0	0
6	39	2	47	0	0	0	0	0	0	0	0	0	0	0	0	0	0	2	0	0
6	39	2	48	0	0	0	0	0	0	0	0	0	0	0	0	0	0	2	0	0
6	39	2	49	0	0	0	0	0	0	0	0	0	0	0	0	0	0	2	0	0
6	39	2	50	0	0	0	0	0	0	0	0	0	0	0	0	0	0	2	0	0
6	39	2	51	0	0	0	0	0	0	0	0	0	0	0	0	0	0	2	0	0
6	40	2	45	0	0	0	0	0	0	0	0	0	0	0	0	0	0	2	0	0
6	40	2	46	0	0	0	0	0	0	0	0	0	0	0	0	0	0	2	0	0
6	40	2	47	0	0	0	0	0	0	0	0	0	0	0	0	0	0	2	0	0
6	40	2	48	0	0	0	0	0	0	0	0	0	0	0	0	0	0	2	0	0
6	40	2	49	0	0	0	0	0	0	0	0	0	0	0	0	0	0	2	0	0
6	40	2	50	0	0	0	0	0	0	0	0	0	0	0	0	0	0	2	0	0
6	40	2	51	0	0	0	0	0	0	0	0	0	0	0	0	0	0	2	0	0
6	40	2	52	0	0	0	0	0	0	0	0	0	0	0	0	0	0	2	0	0
6	41	2	46	0	0	0	0	0	0	0	0	0	0	0	0	0	0	2	0	0
6	41	2	47	0	0	0	0	0	0	0	0	0	0	0	0	0	0	2	0	0
6	41	2	48	0	0	0	0	0	0	0	0	0	0	0	0	0	0	2	0	0
6	41	2	49	0	0	0	0	0	0	0	0	0	0	0	0	0	0	2	0	0
6	41	2	50	0	0	0	0	0	0	0	0	0	0	0	0	0	0	2	0	0
6	41	2	51	0	0	0	0	0	0	0	0	0	0	0	0	0	0	2	0	0
6	41	2	52	0	0	0	0	0	0	0	0	0	0	0	0	0	0	2	0	0
6	41	2	53	0	0	0	0	0	0	0	0	0	0	0	0	0	0	2	0	0
6	42	2	47	0	0	0	0	0	0	0	0	0	0	0	0	0	0	2	0	0
6	42	2	48	0	0	0	0	0	0	0	0	0	0	0	0	0	0	2	0	0
6	42	2	49	0	0	0	0	0	0	0	0	0	0	0	0	0	0	2	0	0
6	42	2	50	0	0	0	0	0	0	0	0	0	0	0	0	0	0	2	0	0
6	42	2	51	0	0	0	0	0	0	0	0	0	0	0	0	0	0	2	0	0
6	42	2	52	0	0	0	0	0	0	0	0	0	0	0	0	0	0	2	0	0
6	42	2	53	0	0	0	0	0	0	0	0	0	0	0	0	0	0	2	0	0
6	42	2	54	0	0	0	0	0	0	0	0	0	0	0	0	0	0	2	0	0
6	43	2	48	0	0	0	0	0	0	0	0	0	0	0	0	0	0	2	0	0
6	43	2	49	0	0	0	0	0	0	0	0	0	0	0	0	0	0	2	0	0
6	43	2	50	0	0	0	0	0	0	0	0	0	0	0	0	0	0	2	0	0
6	43	2	51	0	0	0	0	0	0	0	0	0	0	0	0	0	0	2	0	0
6	43	2	52	0	0	0	0	0	0	0	0	0	0	0	0	0	0	2	0	0
6	43	2	53	0	0	0	0	0	0	0	0	0	0	0	0	0	0	2	0	0
6	43	2	54	0	0	0	0	0	0	0	0	0	0	0	0	0	0	2	0	0
6	43	2	55	0	0	0	0	0	0	0	0	0	0	0	0	0	0	2	0	0
6	44	2	49	0	0	0	0	0	0	0	0	0	0	0	0	0	0	2	0	0
6	44	2	50	0	0	0	0	0	0	0	0	0	0	0	0	0	0	2	0	0
6	44	2	51	0	0	0	0	0	0	0	0	0	0	0	0	0	0	2	0	0
6	44	2	52	0	0	0	0	0	0	0	0	0	0	0	0	0	0	2	0	0
6	44	2	53	0	0	0	0	0	0	0	0	0	0	0	0	0	0	2	0	0
6	44	2	54	0	0	0	0	0	0	0	0	0	0	0	0	0	0	2	0	0
6	44	2	55	0	0	0	0	0	0	0	0	0	0	0	0	0	0	2	0	0
6	44	2	56	0	0	0	0	0	0	0	0	0	0	0	0	0	0	2	0	0
6	45	2	50	0	0	0	0	0	0	0	0	0	0	0	0	0	0	2	0	0
6	45	2	51	0	0	0	0	0	0	0	0	0	0	0	0	0	0	2	0	0
6	45	2	52	0	0	0	0	0	0	0	0	0	0	0	0	0	0	2	0	0
6	45	2	53	0	0	0	0	0	0	0	0	0	0	0	0	0	0	2	0	0
6	45	2	54	0	0	0	0	0	0	0	0	0	0	0	0	0	0	2	0	0
6	45	2	55	0	0	0	0	0	0	0	0	0	0	0	0	0	0	2	0	0
6	45	2	56	0	0	0	0	0	0	0	0	0	0	0	0	0	0	2	0	0
6	45	2	57	0	0	0	0	0	0	0	0	0	0	0	0	0	0	2	0	0
6	46	2	51	0	0	0	0	0	0	0	0	0	0	0	0	0	0	2	0	0
6	46	2	52	0	0	0	0	0	0	0	0	0	0	0	0	0	0	2	0	0
6	46	2	53	0	0	0	0	0	0	0	0	0	0	0	0	0	0	2	0	0
6	46	2	54	0	0	0	0	0	0	0	0	0	0	0	0	0	0	2	0	0
6	46	2	55	0	0	0	0	0	0	0	0	0	0	0	0	0	0	2	0	0
6	46	2	56	0	0	0	0	0	0	0	0	0	0	0	0	0	0	2	0	0
6	46	2	57	0	0	0	0	0	0	0	0	0	0	0	0	0	0	2	0	0
6	46	2	58	0	0	0	0	0	0	0	0	0	0	0	0	0	0	2	0	0
6	47	2	52	0	0	0	0	0	0	0	0	0	0	0	0	0	0	2	0	0
6	47	2	53	0	0	0	0	0	0	0	0	0	0	0	0	0	0	2	0	0
6	47	2	54	0	0	0	0	0	0	0	0	0	0	0	0	0	0	2	0	0
6	47	2	55	0	0	0	0	0	0	0	0	0	0	0	0	0	0	2	0	0
6	47	2	56	0	0	0	0	0	0	0	0	0	0	0	0	0	0	2	0	0
6	47	2	57	0	0	0	0	0	0	0	0	0	0	0	0	0	0	2	0	0
6	47	2	58	0	0	0	0	0	0	0	0	0	0	0	0	0	0	2	0	0
6	47	2	59	0	0	0	0	0	0	0	0	0	0	0	0	0	0	2	0	0
6	48	2	53	0	0	0	0	0	0	0	0	0	0	0	0	0	0	2	0	0
6	48	2	54	0	0	0	0	0	0	0	0	0	0	0	0	0	0	2	0	0
6	48	2	55	0	0	0	0	0	0	0	0	0	0	0	0	0	0	2	0	0
6	48	2	56	0	0	0	0	0	0	0	0	0	0	0	0	0	0	2	0	0
6	48	2	57	0	0	0	0	0	0	0	0	0	0	0	0	0	0	2	0	0
6	48	2	58	0	0	0	0	0	0	0	0	0	0	0	0	0	0	2	0	0
6	48	2	59	0	0	0	0	0	0	0	0	0	0	0	0	0	0	2	0	0
6	48	2	60	0	0	0	0	0	0	0	0	0	0	0	0	0	0	2	0	0
6	49	2	54	0	0	0	0	0	0	0	0	0	0	0	0	0	0	2	0	0
6	49	2	55	0	0	0	0	0	0	0	0	0	0	0	0	0	0	2	0	0
6	49	2	56	0	0	0	0	0	0	0	0	0	0	0	0	0	0	2	0	0
6	49	2	57	0	0	0	0	0	0	0	0	0	0	0	0	0	0	2	0	0
6	49	2	58	0	0	0	0	0	0	0	0	0	0	0	0	0	0	2	0	0
6	49	2	59	0	0	0	0	0	0	0	0	0	0	0	0	0	0	2	0	0
6	49	2	60	0	0	0	0	0	0	0	0	0	0	0	0	0	0	2	0	0
6	49	2	61	0	0	0	0	0	0	0	0	0	0	0	0	0	0	2	0	0
6	50	2	55	0	0	0	0	0	0	0	0	0	0	0	0	0	0	2	0	0
6	50	2	56	0	0	0	0	0	0	0	0	0	0	0	0	0	0	2	0	0
6	50	2	57	0	0	0	0	0	0	0	0	0	0	0	0	0	0	2	0	0
6	50	2	58	0	0	0	0	0	0	0	0	0	0	0	0	0	0	2	0	0
6	50	2	59	0	0	0	0	0	0	0	0	0	0	0	0	0	0	2	0	0
6	50	2	60	0	0	0	0	0	0	0	0	0	0	0	0	0	0	2	0	0
6	50	2	61	0	0	0	0	0	0	0	0	0	0	0	0	0	0	2	0	0
6	50	2	62	0	0	0	0	0	0	0	0	0	0	0	0	0	0	2	0	0
6	51	2	56	0	0	0	0	0	0	0	0	0	0	0	0	0	0	2	0	0
6	51	2	57	0	0	0	0	0	0	0	0	0	0	0	0	0	0	2	0	0
6	51	2	58	0	0	0	0	0	0	0	0	0	0	0	0	0	0	2	0	0
6	51	2	59	0	0	0	0	0	0	0	0	0	0	0	0	0	0	2	0	0
6	51	2	60	0	0	0	0	0	0	0	0	0	0	0	0	0	0	2	0	0
6	51	2	61	0	0	0	0	0	0	0	0	0	0	0	0	0	0	2	0	0
6	51	2	62	0	0	0	0	0	0	0	0	0	0	0	0	0	0	2	0	0
6	51	2	63	0	0	0	0	0	0	0	0	0	0	0	0	0	0	2	0	0
6	52	2	57	0	0	0	0	0	0	0	0	0	0	0	0	0	0	2	0	0
6	52	2	58	0	0	0	0	0	0	0	0	0	0	0	0	0	0	2	0	0
6	52	2	59	0	0	0	0	0	0	0	0	0	0	0	0	0	0	2	0	0
6	52	2	60	0	0	0	0	0	0	0	0	0	0	0	0	0	0	2	0	0
6	52	2	61	0	0	0	0	0	0	0	0	0	0	0	0	0	0	2	0	0
6	52	2	62	0	0	0	0	0	0	0	0	0	0	0	0	0	0	2	0	0
6	52	2	63	0	0	0	0	0	0	0	0	0	0	0	0	0	0	2	0	0
6	52	2	64	0	0	0	0	0	0	0	0	0	0	0	0	0	0	2	0	0
6	53	2	58	0	0	0	0	0	0	0	0	0	0	0	0	0	0	2	0	0
6	53	2	59	0	0	0	0	0	0	0	0	0	0	0	0	0	0	2	0	0
6	53	2	60	0	0	0	0	0	0	0	0	0	0	0	0	0	0	2	0	0
6	53	2	61	0	0	0	0	0	0	0	0	0	0	0	0	0	0	2	0	0
6	53	2	62	0	0	0	0	0	0	0	0	0	0	0	0	0	0	2	0	0
6	53	2	63	0	0	0	0	0	0	0	0	0	0	0	0	0	0	2	0	0
6	53	2	64	0	0	0	0	0	0	0	0	0	0	0	0	0	0	2	0	0
6	53	2	65	0	0	0	0	0	0	0	0	0	0	0	0	0	0	2	0	0
6	54	2	59	0	0	0	0	0	0	0	0	0	0	0	0	0	0	2	0	0
6	54	2	60	0	0	0	0	0	0	0	0	0	0	0	0	0	0	2	0	0
6	54	2	61	0	0	0	0	0	0	0	0	0	0	0	0	0	0	2	0	0
6	54	2	62	0	0	0	0	0	0	0	0	0	0	0	0	0	0	2	0	0
6	54	2	63	0	0	0	0	0	0	0	0	0	0	0	0	0	0	2	0	0
6	54	2	64	0	0	0	0	0	0	0	0	0	0	0	0	0	0	2	0	0
6	54	2	65	0	0	0	0	0	0	0	0	0	0	0	0	0	0	2	0	0
6	54	2	66	0	0	0	0	0	0	0	0	0	0	0	0	0	0	2	0	0
6	55	2	60	0	0	0	0	0	0	0	0	0	0	0	0	0	0	2	0	0
6	55	2	61	0	0	0	0	0	0	0	0	0	0	0	0	0	0	2	0	0
6	55	2	62	0	0	0	0	0	0	0	0	0	0	0	0	0	0	2	0	0
6	55	2	63	0	0	0	0	0	0	0	0	0	0	0	0	0	0	2	0	0
6	55	2	64	0	0	0	0	0	0	0	0	0	0	0	0	0	0	2	0	0
6	55	2	65	0	0	0	0	0	0	0	0	0	0	0	0	0	0	2	0	0
6	55	2	66	0	0	0	0	0	0	0	0	0	0	0	0	0	0	2	0	0
6	55	2	67	0	0	0	0	0	0	0	0	0	0	0	0	0	0	2	0	0
6	56	2	61	0	0	0	0	0	0	0	0	0	0	0	0	0	0	2	0	0
6	56	2	62	0	0	0	0	0	0	0	0	0	0	0	0	0	0	2	0	0
6	56	2	63	0	0	0	0	0	0	0	0	0	0	0	0	0	0	2	0	0
6	56	2	64	0	0	0	0	0	0	0	0	0	0	0	0	0	0	2	0	0
6	56	2	65	0	0	0	0	0	0	0	0	0	0	0	0	0	0	2	0	0
6	56	2	66	0	0	0	0	0	0	0	0	0	0	0	0	0	0	2	0	0
6	56	2	67	0	0	0	0	0	0	0	0	0	0	0	0	0	0	2	0	0
6	56	2	68	0	0	0	0	0	0	0	0	0	0	0	0	0	0	2	0	0
6	57	2	62	0	0	0	0	0	0	0	0	0	0	0	0	0	0	2	0	0
6	57	2	63	0	0	0	0	0	0	0	0	0	0	0	0	0	0	2	0	0
6	57	2	64	0	0	0	0	0	0	0	0	0	0	0	0	0	0	2	0	0
6	57	2	65	0	0	0	0	0	0	0	0	0	0	0	0	0	0	2	0	0
6	57	2	66	0	0	0	0	0	0	0	0	0	0	0	0	0	0	2	0	0
6	57	2	67	0	0	0	0	0	0	0	0	0	0	0	0	0	0	2	0	0
6	57	2	68	0	0	0	0	0	0	0	0	0	0	0	0	0	0	2	0	0
6	57	2	69	0	0	0	0	0	0	0	0	0	0	0	0	0	0	2	0	0
6	58	2	63	0	0	0	0	0	0	0	0	0	0	0	0	0	0	2	0	0
6	58	2	64	0	0	0	0	0	0	0	0	0	0	0	0	0	0	2	0	0
6	58	2	65	0	0	0	0	0	0	0	0	0	0	0	0	0	0	2	0	0
6	58	2	66	0	0	0	0	0	0	0	0	0	0	0	0	0	0	2	0	0
6	58	2	67	0	0	0	0	0	0	0	0	0	0	0	0	0	0	2	0	0
6	58	2	68	0	0	0	0	0	0	0	0	0	0	0	0	0	0	2	0	0
6	58	2	69	0	0	0	0	0	0	0	0	0	0	0	0	0	0	2	0	0
6	58	2	70	0	0	0	0	0	0	0	0	0	0	0	0	0	0	2	0	0
6	59	2	64	0	0	0	0	0	0	0	0	0	0	0	0	0	0	2	0	0
6	59	2	65	0	0	0	0	0	0	0	0	0	0	0	0	0	0	2	0	0
6	59	2	66	0	0	0	0	0	0	0	0	0	0	0	0	0	0	2	0	0
6	59	2	67	0	0	0	0	0	0	0	0	0	0	0	0	0	0	2	0	0
6	59	2	68	0	0	0	0	0	0	0	0	0	0	0	0	0	0	2	0	0
6	59	2	69	0	0	0	0	0	0	0	0	0	0	0	0	0	0	2	0	0
6	59	2	70	0	0	0	0	0	0	0	0	0	0	0	0	0	0	2	0	0
6	59	2	71	0	0	0	0	0	0	0	0	0	0	0	0	0	0	2	0	0
6	60	2	65	0	0	0	0	0	0	0	0	0	0	0	0	0	0	2	0	0
6	60	2	66	0	0	0	0	0	0	0	0	0	0	0	0	0	0	2	0	0
6	60	2	67	0	0	0	0	0	0	0	0	0	0	0	0	0	0	2	0	0
6	60	2	68	0	0	0	0	0	0	0	0	0	0	0	0	0	0	2	0	0
6	60	2	69	0	0	0	0	0	0	0	0	0	0	0	0	0	0	2	0	0
6	60	2	70	0	0	0	0	0	0	0	0	0	0	0	0	0	0	2	0	0
6	60	2	71	0	0	0	0	0	0	0	0	0	0	0	0	0	0	2	0	0
6	60	2	72	0	0	0	0	0	0	0	0	0	0	0	0	0	0	2	0	0
6	61	2	66	0	0	0	0	0	0	0	0	0	0	0	0	0	0	2	0	0
6	61	2	67	0	0	0	0	0	0	0	0	0	0	0	0	0	0	2	0	0
6	61	2	68	0	0	0	0	0	0	0	0	0	0	0	0	0	0	2	0	0
6	61	2	69	0	0	0	0	0	0	0	0	0	0	0	0	0	0	2	0	0
6	61	2	70	0	0	0	0	0	0	0	0	0	0	0	0	0	0	2	0	0
6	61	2	71	0	0	0	0	0	0	0	0	0	0	0	0	0	0	2	0	0
6	61	2	72	0	0	0	0	0	0	0	0	0	0	0	0	0	0	2	0	0
6	61	2	73	0	0	0	0	0	0	0	0	0	0	0	0	0	0	2	0	0
6	62	2	67	0	0	0	0	0	0	0	0	0	0	0	0	0	0	2	0	0
6	62	2	68	0	0	0	0	0	0	0	0	0	0	0	0	0	0	2	0	0
6	62	2	69	0	0	0	0	0	0	0	0	0	0	0	0	0	0	2	0	0
6	62	2	70	0	0	0	0	0	0	0	0	0	0	0	0	0	0	2	0	0
6	62	2	71	0	0	0	0	0	0	0	0	0	0	0	0	0	0	2	0	0
6	62	2	72	0	0	0	0	0	0	0	0	0	0	0	0	0	0	2	0	0
6	62	2	73	0	0	0	0	0	0	0	0	0	0	0	0	0	0	2	0	0
6	62	2	74	0	0	0	0	0	0	0	0	0	0	0	0	0	0	2	0	0
6	63	2	68	0	0	0	0	0	0	0	0	0	0	0	0	0	0	2	0	0
6	63	2	69	0	0	0	0	0	0	0	0	0	0	0	0	0	0	2	0	0
6	63	2	70	0	0	0	0	0	0	0	0	0	0	0	0	0	0	2	0	0
6	63	2	71	0	0	0	0	0	0	0	0	0	0	0	0	0	0	2	0	0
6	63	2	72	0	0	0	0	0	0	0	0	0	0	0	0	0	0	2	0	0
6	63	2	73	0	0	0	0	0	0	0	0	0	0	0	0	0	0	2	0	0
6	63	2	74	0	0	0	0	0	0	0	0	0	0	0	0	0	0	2	0	0
6	63	2	75	0	0	0	0	0	0	0	0	0	0	0	0	0	0	2	0	0
6	64	2	69	0	0	0	0	0	0	0	0	0	0	0	0	0	0	2	0	0
6	64	2	70	0	0	0	0	0	0	0	0	0	0	0	0	0	0	2	0	0
6	64	2	71	0	0	0	0	0	0	0	0	0	0	0	0	0	0	2	0	0
6	64	2	72	0	0	0	0	0	0	0	0	0	0	0	0	0	0	2	0	0
6	64	2	73	0	0	0	0	0	0	0	0	0	0	0	0	0	0	2	0	0
6	64	2	74	0	0	0	0	0	0	0	0	0	0	0	0	0	0	2	0	0
6	64	2	75	0	0	0	0	0	0	0	0	0	0	0	0	0	0	2	0	0
6	64	2	76	0	0	0	0	0	0	0	0	0	0	0	0	0	0	2	0	0
6	65	2	70	0	0	0	0	0	0	0	0	0	0	0	0	0	0	2	0	0
6	65	2	71	0	0	0	0	0	0	0	0	0	0	0	0	0	0	2	0	0
6	65	2	72	0	0	0	0	0	0	0	0	0	0	0	0	0	0	2	0	0
6	65	2	73	0	0	0	0	0	0	0	0	0	0	0	0	0	0	2	0	0
6	65	2	74	0	0	0	0	0	0	0	0	0	0	0	0	0	0	2	0	0
6	65	2	75	0	0	0	0	0	0	0	0	0	0	0	0	0	0	2	0	0
6	65	2	76	0	0	0	0	0	0	0	0	0	0	0	0	0	0	2	0	0
6	65	2	77	0	0	0	0	0	0	0	0	0	0	0	0	0	0	2	0	0
6	66	2	71	0	0	0	0	0	0	0	0	0	0	0	0	0	0	2	0	0
6	66	2	72	0	0	0	0	0	0	0	0	0	0	0	0	0	0	2	0	0
6	66	2	73	0	0	0	0	0	0	0	0	0	0	0	0	0	0	2	0	0
6	66	2	74	0	0	0	0	0	0	0	0	0	0	0	0	0	0	2	0	0
6	66	2	75	0	0	0	0	0	0	0	0	0	0	0	0	0	0	2	0	0
6	66	2	76	0	0	0	0	0	0	0	0	0	0	0	0	0	0	2	0	0
6	66	2	77	0	0	0	0	0	0	0	0	0	0	0	0	0	0	2	0	0
6	66	2	78	0	0	0	0	0	0	0	0	0	0	0	0	0	0	2	0	0
6	67	2	72	0	0	0	0	0	0	0	0	0	0	0	0	0	0	2	0	0
6	67	2	73	0	0	0	0	0	0	0	0	0	0	0	0	0	0	2	0	0
6	67	2	74	0	0	0	0	0	0	0	0	0	0	0	0	0	0	2	0	0
6	67	2	75	0	0	0	0	0	0	0	0	0	0	0	0	0	0	2	0	0
6	67	2	76	0	0	0	0	0	0	0	0	0	0	0	0	0	0	2	0	0
6	67	2	77	0	0	0	0	0	0	0	0	0	0	0	0	0	0	2	0	0
6	67	2	78	0	0	0	0	0	0	0	0	0	0	0	0	0	0	2	0	0
6	67	2	79	0	0	0	0	0	0	0	0	0	0	0	0	0	0	2	0	0
6	68	2	73	0	0	0	0	0	0	0	0	0	0	0	0	0	0	2	0	0
6	68	2	74	0	0	0	0	0	0	0	0	0	0	0	0	0	0	2	0	0
6	68	2	75	0	0	0	0	0	0	0	0	0	0	0	0	0	0	2	0	0
6	68	2	76	0	0	0	0	0	0	0	0	0	0	0	0	0	0	2	0	0
6	68	2	77	0	0	0	0	0	0	0	0	0	0	0	0	0	0	2	0	0
6	68	2	78	0	0	0	0	0	0	0	0	0	0	0	0	0	0	2	0	0
6	68	2	79	0	0	0	0	0	0	0	0	0	0	0	0	0	0	2	0	0
6	68	2	80	0	0	0	0	0	0	0	0	0	0	0	0	0	0	2	0	0
6	69	2	74	0	0	0	0	0	0	0	0	0	0	0	0	0	0	2	0	0
6	69	2	75	0	0	0	0	0	0	0	0	0	0	0	0	0	0	2	0	0
6	69	2	76	0	0	0	0	0	0	0	0	0	0	0	0	0	0	2	0	0
6	69	2	77	0	0	0	0	0	0	0	0	0	0	0	0	0	0	2	0	0
6	69	2	78	0	0	0	0	0	0	0	0	0	0	0	0	0	0	2	0	0
6	69	2	79	0	0	0	0	0	0	0	0	0	0	0	0	0	0	2	0	0
6	69	2	80	0	0	0	0	0	0	0	0	0	0	0	0	0	0	2	0	0
6	69	2	81	0	0	0	0	0	0	0	0	0	0	0	0	0	0	2	0	0
6	70	2	75	0	0	0	0	0	0	0	0	0	0	0	0	0	0	2	0	0
6	70	2	76	0	0	0	0	0	0	0	0	0	0	0	0	0	0	2	0	0
6	70	2	77	0	0	0	0	0	0	0	0	0	0	0	0	0	0	2	0	0
6	70	2	78	0	0	0	0	0	0	0	0	0	0	0	0	0	0	2	0	0
6	70	2	79	0	0	0	0	0	0	0	0	0	0	0	0	0	0	2	0	0
6	70	2	80	0	0	0	0	0	0	0	0	0	0	0	0	0	0	2	0	0
6	70	2	81	0	0	0	0	0	0	0	0	0	0	0	0	0	0	2	0	0
6	70	2	82	0	0	0	0	0	0	0	0	0	0	0	0	0	0	2	0	0
6	71	2	76	0	0	0	0	0	0	0	0	0	0	0	0	0	0	2	0	0
6	71	2	77	0	0	0	0	0	0	0	0	0	0	0	0	0	0	2	0	0
6	71	2	78	0	0	0	0	0	0	0	0	0	0	0	0	0	0	2	0	0
6	71	2	79	0	0	0	0	0	0	0	0	0	0	0	0	0	0	2	0	0
6	71	2	80	0	0	0	0	0	0	0	0	0	0	0	0	0	0	2	0	0
6	71	2	81	0	0	0	0	0	0	0	0	0	0	0	0	0	0	2	0	0
6	71	2	82	0	0	0	0	0	0	0	0	0	0	0	0	0	0	2	0	0
6	71	2	83	0	0	0	0	0	0	0	0	0	0	0	0	0	0	2	0	0
6	72	2	77	0	0	0	0	0	0	0	0	0	0	0	0	0	0	2	0	0
6	72	2	78	0	0	0	0	0	0	0	0	0	0	0	0	0	0	2	0	0
6	72	2	79	0	0	0	0	0	0	0	0	0	0	0	0	0	0	2	0	0
6	72	2	80	0	0	0	0	0	0	0	0	0	0	0	0	0	0	2	0	0
6	72	2	81	0	0	0	0	0	0	0	0	0	0	0	0	0	0	2	0	0
6	72	2	82	0	0	0	0	0	0	0	0	0	0	0	0	0	0	2	0	0
6	72	2	83	0	0	0	0	0	0	0	0	0	0	0	0	0	0	2	0	0
6	72	2	84	0	0	0	0	0	0	0	0	0	0	0	0	0	0	2	0	0
6	73	2	78	0	0	0	0	0	0	0	0	0	0	0	0	0	0	2	0	0
6	73	2	79	0	0	0	0	0	0	0	0	0	0	0	0	0	0	2	0	0
6	73	2	80	0	0	0	0	0	0	0	0	0	0	0	0	0	0	2	0	0
6	73	2	81	0	0	0	0	0	0	0	0	0	0	0	0	0	0	2	0	0
6	73	2	82	0	0	0	0	0	0	0	0	0	0	0	0	0	0	2	0	0
6	73	2	83	0	0	0	0	0	0	0	0	0	0	0	0	0	0	2	0	0
6	73	2	84	0	0	0	0	0	0	0	0	0	0	0	0	0	0	2	0	0
6	73	2	85	0	0	0	0	0	0	0	0	0	0	0	0	0	0	2	0	0
6	74	2	79	0	0	0	0	0	0	0	0	0	0	0	0	0	0	2	0	0
6	74	2	80	0	0	0	0	0	0	0	0	0	0	0	0	0	0	2	0	0
6	74	2	81	0	0	0	0	0	0	0	0	0	0	0	0	0	0	2	0	0
6	74	2	82	0	0	0	0	0	0	0	0	0	0	0	0	0	0	2	0	0
6	74	2	83	0	0	0	0	0	0	0	0	0	0	0	0	0	0	2	0	0
6	74	2	84	0	0	0	0	0	0	0	0	0	0	0	0	0	0	2	0	0
6	74	2	85	0	0	0	0	0	0	0	0	0	0	0	0	0	0	2	0	0
6	74	2	86	0	0	0	0	0	0	0	0	0	0	0	0	0	0	2	0	0
6	75	2	80	0	0	0	0	0	0	0	0	0	0	0	0	0	0	2	0	0
6	75	2	81	0	0	0	0	0	0	0	0	0	0	0	0	0	0	2	0	0
6	75	2	82	0	0	0	0	0	0	0	0	0	0	0	0	0	0	2	0	0
6	75	2	83	0	0	0	0	0	0	0	0	0	0	0	0	0	0	2	0	0
6	75	2	84	0	0	0	0	0	0	0	0	0	0	0	0	0	0	2	0	0
6	75	2	85	0	0	0	0	0	0	0	0	0	0	0	0	0	0	2	0	0
6	75	2	86	0	0	0	0	0	0	0	0	0	0	0	0	0	0	2	0	0
6	75	2	87	0	0	0	0	0	0	0	0	0	0	0	0	0	0	2	0	0
6	76	2	81	0	0	0	0	0	0	0	0	0	0	0	0	0	0	2	0	0
6	76	2	82	0	0	0	0	0	0	0	0	0	0	0	0	0	0	2	0	0
6	76	2	83	0	0	0	0	0	0	0	0	0	0	0	0	0	0	2	0	0
6	76	2	84	0	0	0	0	0	0	0	0	0	0	0	0	0	0	2	0	0
6	76	2	85	0	0	0	0	0	0	0	0	0	0	0	0	0	0	2	0	0
6	76	2	86	0	0	0	0	0	0	0	0	0	0	0	0	0	0	2	0	0
6	76	2	87	0	0	0	0	0	0	0	0	0	0	0	0	0	0	2	0	0
6	76	2	88	0	0	0	0	0	0	0	0	0	0	0	0	0	0	2	0	0
6	77	2	82	0	0	0	0	0	0	0	0	0	0	0	0	0	0	2	0	0
6	77	2	83	0	0	0	0	0	0	0	0	0	0	0	0	0	0	2	0	0
6	77	2	84	0	0	0	0	0	0	0	0	0	0	0	0	0	0	2	0	0
6	77	2	85	0	0	0	0	0	0	0	0	0	0	0	0	0	0	2	0	0
6	77	2	86	0	0	0	0	0	0	0	0	0	0	0	0	0	0	2	0	0
6	77	2	87	0	0	0	0	0	0	0	0	0	0	0	0	0	0	2	0	0
6	77	2	88	0	0	0	0	0	0	0	0	0	0	0	0	0	0	2	0	0
6	77	2	89	0	0	0	0	0	0	0	0	0	0	0	0	0	0	2	0	0
6	78	2	83	0	0	0	0	0	0	0	0	0	0	0	0	0	0	2	0	0
6	78	2	84	0	0	0	0	0	0	0	0	0	0	0	0	0	0	2	0	0
6	78	2	85	0	0	0	0	0	0	0	0	0	0	0	0	0	0	2	0	0
6	78	2	86	0	0	0	0	0	0	0	0	0	0	0	0	0	0	2	0	0
6	78	2	87	0	0	0	0	0	0	0	0	0	0	0	0	0	0	2	0	0
6	78	2	88	0	0	0	0	0	0	0	0	0	0	0	0	0	0	2	0	0
6	78	2	89	0	0	0	0	0	0	0	0	0	0	0	0	0	0	2	0	0
6	78	2	90	0	0	0	0	0	0	0	0	0	0	0	0	0	0	2	0	0
6	79	2	84	0	0	0	0	0	0	0	0	0	0	0	0	0	0	2	0	0
6	79	2	85	0	0	0	0	0	0	0	0	0	0	0	0	0	0	2	0	0
6	79	2	86	0	0	0	0	0	0	0	0	0	0	0	0	0	0	2	0	0
6	79	2	87	0	0	0	0	0	0	0	0	0	0	0	0	0	0	2	0	0
6	79	2	88	0	0	0	0	0	0	0	0	0	0	0	0	0	0	2	0	0
6	79	2	89	0	0	0	0	0	0	0	0	0	0	0	0	0	0	2	0	0
6	79	2	90	0	0	0	0	0	0	0	0	0	0	0	0	0	0	2	0	0
6	79	2	91	0	0	0	0	0	0	0	0	0	0	0	0	0	0	2	0	0
6	80	2	85	0	0	0	0	0	0	0	0	0	0	0	0	0	0	2	0	0
6	80	2	86	0	0	0	0	0	0	0	0	0	0	0	0	0	0	2	0	0
6	80	2	87	0	0	0	0	0	0	0	0	0	0	0	0	0	0	2	0	0
6	80	2	88	0	0	0	0	0	0	0	0	0	0	0	0	0	0	2	0	0
6	80	2	89	0	0	0	0	0	0	0	0	0	0	0	0	0	0	2	0	0
6	80	2	90	0	0	0	0	0	0	0	0	0	0	0	0	0	0	2	0	0
6	80	2	91	0	0	0	0	0	0	0	0	0	0	0	0	0	0	2	0	0
6	80	2	92	0	0	0	0	0	0	0	0	0	0	0	0	0	0	2	0	0
6	81	2	86	0	0	0	0	0	0	0	0	0	0	0	0	0	0	2	0	0
6	81	2	87	0	0	0	0	0	0	0	0	0	0	0	0	0	0	2	0	0
6	81	2	88	0	0	0	0	0	0	0	0	0	0	0	0	0	0	2	0	0
6	81	2	89	0	0	0	0	0	0	0	0	0	0	0	0	0	0	2	0	0
6	81	2	90	0	0	0	0	0	0	0	0	0	0	0	0	0	0	2	0	0
6	81	2	91	0	0	0	0	0	0	0	0	0	0	0	0	0	0	2	0	0
6	81	2	92	0	0	0	0	0	0	0	0	0	0	0	0	0	0	2	0	0
6	81	2	93	0	0	0	0	0	0	0	0	0	0	0	0	0	0	2	0	0
6	82	2	87	0	0	0	0	0	0	0	0	0	0	0	0	0	0	2	0	0
6	82	2	88	0	0	0	0	0	0	0	0	0	0	0	0	0	0	2	0	0
6	82	2	89	0	0	0	0	0	0	0	0	0	0	0	0	0	0	2	0	0
6	82	2	90	0	0	0	0	0	0	0	0	0	0	0	0	0	0	2	0	0
6	82	2	91	0	0	0	0	0	0	0	0	0	0	0	0	0	0	2	0	0
6	82	2	92	0	0	0	0	0	0	0	0	0	0	0	0	0	0	2	0	0
6	82	2	93	0	0	0	0	0	0	0	0	0	0	0	0	0	0	2	0	0
6	82	2	94	0	0	0	0	0	0	0	0	0	0	0	0	0	0	2	0	0
6	83	2	88	0	0	0	0	0	0	0	0	0	0	0	0	0	0	2	0	0
6	83	2	89	0	0	0	0	0	0	0	0	0	0	0	0	0	0	2	0	0
6	83	2	90	0	0	0	0	0	0	0	0	0	0	0	0	0	0	2	0	0
6	83	2	91	0	0	0	0	0	0	0	0	0	0	0	0	0	0	2	0	0
6	83	2	92	0	0	0	0	0	0	0	0	0	0	0	0	0	0	2	0	0
6	83	2	93	0	0	0	0	0	0	0	0	0	0	0	0	0	0	2	0	0
6	83	2	94	0	0	0	0	0	0	0	0	0	0	0	0	0	0	2	0	0
6	83	2	95	0	0	0	0	0	0	0	0	0	0	0	0	0	0	2	0	0
6	84	2	89	0	0	0	0	0	0	0	0	0	0	0	0	0	0	2	0	0
6	84	2	90	0	0	0	0	0	0	0	0	0	0	0	0	0	0	2	0	0
6	84	2	91	0	0	0	0	0	0	0	0	0	0	0	0	0	0	2	0	0
6	84	2	92	0	0	0	0	0	0	0	0	0	0	0	0	0	0	2	0	0
6	84	2	93	0	0	0	0	0	0	0	0	0	0	0	0	0	0	2	0	0
6	84	2	94	0	0	0	0	0	0	0	0	0	0	0	0	0	0	2	0	0
6	84	2	95	0	0	0	0	0	0	0	0	0	0	0	0	0	0	2	0	0
6	84	2	96	0	0	0	0	0	0	0	0	0	0	0	0	0	0	2	0	0
6	85	2	90	0	0	0	0	0	0	0	0	0	0	0	0	0	0	2	0	0
6	85	2	91	0	0	0	0	0	0	0	0	0	0	0	0	0	0	2	0	0
6	85	2	92	0	0	0	0	0	0	0	0	0	0	0	0	0	0	2	0	0
6	85	2	93	0	0	0	0	0	0	0	0	0	0	0	0	0	0	2	0	0
6	85	2	94	0	0	0	0	0	0	0	0	0	0	0	0	0	0	2	0	0
6	85	2	95	0	0	0	0	0	0	0	0	0	0	0	0	0	0	2	0	0
6	85	2	96	0	0	0	0	0	0	0	0	0	0	0	0	0	0	2	0	0
6	85	2	97	0	0	0	0	0	0	0	0	0	0	0	0	0	0	2	0	0
6	86	2	91	0	0	0	0	0	0	0	0	0	0	0	0	0	0	2	0	0
6	86	2	92	0	0	0	0	0	0	0	0	0	0	0	0	0	0	2	0	0
6	86	2	93	0	0	0	0	0	0	0	0	0	0	0	0	0	0	2	0	0
6	86	2	94	0	0	0	0	0	0	0	0	0	0	0	0	0	0	2	0	0
6	86	2	95	0	0	0	0	0	0	0	0	0	0	0	0	0	0	2	0	0
6	86	2	96	0	0	0	0	0	0	0	0	0	0	0	0	0	0	2	0	0
6	86	2	97	0	0	0	0	0	0	0	0	0	0	0	0	0	0	2	0	0
6	86	2	98	0	0	0	0	0	0	0	0	0	0	0	0	0	0	2	0	0
6	87	2	92	0	0	0	0	0	0	0	0	0	0	0	0	0	0	2	0	0
6	87	2	93	0	0	0	0	0	0	0	0	0	0	0	0	0	0	2	0	0
6	87	2	94	0	0	0	0	0	0	0	0	0	0	0	0	0	0	2	0	0
6	87	2	95	0	0	0	0	0	0	0	0	0	0	0	0	0	0	2	0	0
6	87	2	96	0	0	0	0	0	0	0	0	0	0	0	0	0	0	2	0	0
6	87	2	97	0	0	0	0	0	0	0	0	0	0	0	0	0	0	2	0	0
6	87	2	98	0	0	0	0	0	0	0	0	0	0	0	0	0	0	2	0	0
6	87	2	99	0	0	0	0	0	0	0	0	0	0	0	0	0	0	2	0	0
6	88	2	93	0	0	0	0	0	0	0	0	0	0	0	0	0	0	2	0	0
6	88	2	94	0	0	0	0	0	0	0	0	0	0	0	0	0	0	2	0	0
6	88	2	95	0	0	0	0	0	0	0	0	0	0	0	0	0	0	2	0	0
6	88	2	96	0	0	0	0	0	0	0	0	0	0	0	0	0	0	2	0	0
6	88	2	97	0	0	0	0	0	0	0	0	0	0	0	0	0	0	2	0	0
6	88	2	98	0	0	0	0	0	0	0	0	0	0	0	0	0	0	2	0	0
6	88	2	99	0	0	0	0	0	0	0	0	0	0	0	0	0	0	2	0	0
6	88	2	100	0	0	0	0	0	0	0	0	0	0	0	0	0	0	2	0	0
6	89	2	94	0	0	0	0	0	0	0	0	0	0	0	0	0	0	2	0	0
6	89	2	95	0	0	0	0	0	0	0	0	0	0	0	0	0	0	2	0	0
6	89	2	96	0	0	0	0	0	0	0	0	0	0	0	0	0	0	2	0	0
6	89	2	97	0	0	0	0	0	0	0	0	0	0	0	0	0	0	2	0	0
6	89	2	98	0	0	0	0	0	0	0	0	0	0	0	0	0	0	2	0	0
6	89	2	99	0	0	0	0	0	0	0	0	0	0	0	0	0	0	2	0	0
6	89	2	100	0	0	0	0	0	0	0	0	0	0	0	0	0	0	2	0	0
6	89	2	101	0	0	0	0	0	0	0	0	0	0	0	0	0	0	2	0	0
6	90	2	95	0	0	0	0	0	0	0	0	0	0	0	0	0	0	2	0	0
6	90	2	96	0	0	0	0	0	0	0	0	0	0	0	0	0	0	2	0	0
6	90	2	97	0	0	0	0	0	0	0	0	0	0	0	0	0	0	2	0	0
6	90	2	98	0	0	0	0	0	0	0	0	0	0	0	0	0	0	2	0	0
6	90	2	99	0	0	0	0	0	0	0	0	0	0	0	0	0	0	2	0	0
6	90	2	100	0	0	0	0	0	0	0	0	0	0	0	0	0	0	2	0	0
6	90	2	101	0	0	0	0	0	0	0	0	0	0	0	0	0	0	2	0	0
6	90	2	102	0	0	0	0	0	0	0	0	0	0	0	0	0	0	2	0	0
6	91	2	96	0	0	0	0	0	0	0	0	0	0	0	0	0	0	2	0	0
6	91	2	97	0	0	0	0	0	0	0	0	0	0	0	0	0	0	2	0	0
6	91	2	98	0	0	0	0	0	0	0	0	0	0	0	0	0	0	2	0	0
6	91	2	99	0	0	0	0	0	0	0	0	0	0	0	0	0	0	2	0	0
6	91	2	100	0	0	0	0	0	0	0	0	0	0	0	0	0	0	2	0	0
6	91	2	101	0	0	0	0	0	0	0	0	0	0	0	0	0	0	2	0	0
6	91	2	102	0	0	0	0	0	0	0	0	0	0	0	0	0	0	2	0	0
6	91	2	103	0	0	0	0	0	0	0	0	0	0	0	0	0	0	2	0	0
6	92	2	97	0	0	0	0	0	0	0	0	0	0	0	0	0	0	2	0	0
6	92	2	98	0	0	0	0	0	0	0	0	0	0	0	0	0	0	2	0	0
6	92	2	99	0	0	0	0	0	0	0	0	0	0	0	0	0	0	2	0	0
6	92	2	100	0	0	0	0	0	0	0	0	0	0	0	0	0	0	2	0	0
6	92	2	101	0	0	0	0	0	0	0	0	0	0	0	0	0	0	2	0	0
6	92	2	102	0	0	0	0	0	0	0	0	0	0	0	0	0	0	2	0	0
6	92	2	103	0	0	0	0	0	0	0	0	0	0	0	0	0	0	2	0	0
6	92	2	104	0	0	0	0	0	0	0	0	0	0	0	0	0	0	2	0	0
6	93	2	98	0	0	0	0	0	0	0	0	0	0	0	0	0	0	2	0	0
6	93	2	99	0	0	0	0	0	0	0	0	0	0	0	0	0	0	2	0	0
6	93	2	100	0	0	0	0	0	0	0	0	0	0	0	0	0	0	2	0	0
6	93	2	101	0	0	0	0	0	0	0	0	0	0	0	0	0	0	2	0	0
6	93	2	102	0	0	0	0	0	0	0	0	0	0	0	0	0	0	2	0	0
6	93	2	103	0	0	0	0	0	0	0	0	0	0	0	0	0	0	2	0	0
6	93	2	104	0	0	0	0	0	0	0	0	0	0	0	0	0	0	2	0	0
6	93	2	105	0	0	0	0	0	0	0	0	0	0	0	0	0	0	2	0	0
6	94	2	99	0	0	0	0	0	0	0	0	0	0	0	0	0	0	2	0	0
6	94	2	100	0	0	0	0	0	0	0	0	0	0	0	0	0	0	2	0	0
6	94	2	101	0	0	0	0	0	0	0	0	0	0	0	0	0	0	2	0	0
6	94	2	102	0	0	0	0	0	0	0	0	0	0	0	0	0	0	2	0	0
6	94	2	103	0	0	0	0	0	0	0	0	0	0	0	0	0	0	2	0	0
6	94	2	104	0	0	0	0	0	0	0	0	0	0	0	0	0	0	2	0	0
6	94	2	105	0	0	0	0	0	0	0	0	0	0	0	0	0	0	2	0	0
6	94	2	106	0	0	0	0	0	0	0	0	0	0	0	0	0	0	2	0	0
6	95	2	100	0	0	0	0	0	0	0	0	0	0	0	0	0	0	2	0	0
6	95	2	101	0	0	0	0	0	0	0	0	0	0	0	0	0	0	2	0	0
6	95	2	102	0	0	0	0	0	0	0	0	0	0	0	0	0	0	2	0	0
6	95	2	103	0	0	0	0	0	0	0	0	0	0	0	0	0	0	2	0	0
6	95	2	104	0	0	0	0	0	0	0	0	0	0	0	0	0	0	2	0	0
6	95	2	105	0	0	0	0	0	0	0	0	0	0	0	0	0	0	2	0	0
6	95	2	106	0	0	0	0	0	0	0	0	0	0	0	0	0	0	2	0	0
6	95	2	107	0	0	0	0	0	0	0	0	0	0	0	0	0	0	2	0	0
6	96	2	101	0	0	0	0	0	0	0	0	0	0	0	0	0	0	2	0	0
6	96	2	102	0	0	0	0	0	0	0	0	0	0	0	0	0	0	2	0	0
6	96	2	103	0	0	0	0	0	0	0	0	0	0	0	0	0	0	2	0	0
6	96	2	104	0	0	0	0	0	0	0	0	0	0	0	0	0	0	2	0	0
6	96	2	105	0	0	0	0	0	0	0	0	0	0	0	0	0	0	2	0	0
6	96	2	106	0	0	0	0	0	0	0	0	0	0	0	0	0	0	2	0	0
6	96	2	107	0	0	0	0	0	0	0	0	0	0	0	0	0	0	2	0	0
6	96	2	108	0	0	0	0	0	0	0	0	0	0	0	0	0	0	2	0	0
6	97	2	102	0	0	0	0	0	0	0	0	0	0	0	0	0	0	2	0	0
6	97	2	103	0	0	0	0	0	0	0	0	0	0	0	0	0	0	2	0	0
6	97	2	104	0	0	0	0	0	0	0	0	0	0	0	0	0	0	2	0	0
6	97	2	105	0	0	0	0	0	0	0	0	0	0	0	0	0	0	2	0	0
6	97	2	106	0	0	0	0	0	0	0	0	0	0	0	0	0	0	2	0	0
6	97	2	107	0	0	0	0	0	0	0	0	0	0	0	0	0	0	2	0	0
6	97	2	108	0	0	0	0	0	0	0	0	0	0	0	0	0	0	2	0	0
6	97	2	109	0	0	0	0	0	0	0	0	0	0	0	0	0	0	2	0	0
6	98	2	103	0	0	0	0	0	0	0	0	0	0	0	0	0	0	2	0	0
6	98	2	104	0	0	0	0	0	0	0	0	0	0	0	0	0	0	2	0	0
6	98	2	105	0	0	0	0	0	0	0	0	0	0	0	0	0	0	2	0	0
6	98	2	106	0	0	0	0	0	0	0	0	0	0	0	0	0	0	2	0	0
6	98	2	107	0	0	0	0	0	0	0	0	0	0	0	0	0	0	2	0	0
6	98	2	108	0	0	0	0	0	0	0	0	0	0	0	0	0	0	2	0	0
6	98	2	109	0	0	0	0	0	0	0	0	0	0	0	0	0	0	2	0	0
6	98	2	110	0	0	0	0	0	0	0	0	0	0	0	0	0	0	2	0	0
6	99	2	104	0	0	0	0	0	0	0	0	0	0	0	0	0	0	2	0	0
6	99	2	105	0	0	0	0	0	0	0	0	0	0	0	0	0	0	2	0	0
6	99	2	106	0	0	0	0	0	0	0	0	0	0	0	0	0	0	2	0	0
6	99	2	107	0	0	0	0	0	0	0	0	0	0	0	0	0	0	2	0	0
6	99	2	108	0	0	0	0	0	0	0	0	0	0	0	0	0	0	2	0	0
6	99	2	109	0	0	0	0	0	0	0	0	0	0	0	0	0	0	2	0	0
6	99	2	110	0	0	0	0	0	0	0	0	0	0	0	0	0	0	2	0	0
6	99	2	111	0	0	0	0	0	0	0	0	0	0	0	0	0	0	2	0	0
6	100	2	105	0	0	0	0	0	0	0	0	0	0	0	0	0	0	2	0	0
6	100	2	106	0	0	0	0	0	0	0	0	0	0	0	0	0	0	2	0	0
6	100	2	107	0	0	0	0	0	0	0	0	0	0	0	0	0	0	2	0	0
6	100	2	108	0	0	0	0	0	0	0	0	0	0	0	0	0	0	2	0	0
6	100	2	109	0	0	0	0	0	0	0	0	0	0	0	0	0	0	2	0	0
6	100	2	110	0	0	0	0	0	0	0	0	0	0	0	0	0	0	2	0	0
6	100	2	111	0	0	0	0	0	0	0	0	0	0	0	0	0	0	2	0	0
6	100	2	112	0	0	0	0	0	0	0	0	0	0	0	0	0	0	2	0	0
6	101	2	106	0	0	0	0	0	0	0	0	0	0	0	0	0	0	2	0	0
6	101	2	107	0	0	0	0	0	0	0	0	0	0	0	0	0	0	2	0	0
6	101	2	108	0	0	0	0	0	0	0	0	0	0	0	0	0	0	2	0	0
6	101	2	109	0	0	0	0	0	0	0	0	0	0	0	0	0	0	2	0	0
6	101	2	110	0	0	0	0	0	0	0	0	0	0	0	0	0	0	2	0	0
6	101	2	111	0	0	0	0	0	0	0	0	0	0	0	0	0	0	2	0	0
6	101	2	112	0	0	0	0	0	0	0	0	0	0	0	0	0	0	2	0	0
6	101	2	113	0	0	0	0	0	0	0	0	0	0	0	0	0	0	2	0	0
6	102	2	107	0	0	0	0	0	0	0	0	0	0	0	0	0	0	2	0	0
6	102	2	108	0	0	0	0	0	0	0	0	0	0	0	0	0	0	2	0	0
6	102	2	109	0	0	0	0	0	0	0	0	0	0	0	0	0	0	2	0	0
6	102	2	110	0	0	0	0	0	0	0	0	0	0	0	0	0	0	2	0	0
6	102	2	111	0	0	0	0	0	0	0	0	0	0	0	0	0	0	2	0	0
6	102	2	112	0	0	0	0	0	0	0	0	0	0	0	0	0	0	2	0	0
6	102	2	113	0	0	0	0	0	0	0	0	0	0	0	0	0	0	2	0	0
6	102	2	114	0	0	0	0	0	0	0	0	0	0	0	0	0	0	2	0	0
6	103	2	108	0	0	0	0	0	0	0	0	0	0	0	0	0	0	2	0	0
6	103	2	109	0	0	0	0	0	0	0	0	0	0	0	0	0	0	2	0	0
6	103	2	110	0	0	0	0	0	0	0	0	0	0	0	0	0	0	2	0	0
6	103	2	111	0	0	0	0	0	0	0	0	0	0	0	0	0	0	2	0	0
6	103	2	112	0	0	0	0	0	0	0	0	0	0	0	0	0	0	2	0	0
6	103	2	113	0	0	0	0	0	0	0	0	0	0	0	0	0	0	2	0	0
6	103	2	114	0	0	0	0	0	0	0	0	0	0	0	0	0	0	2	0	0
6	103	2	115	0	0	0	0	0	0	0	0	0	0	0	0	0	0	2	0	0
6	104	2	109	0	0	0	0	0	0	0	0	0	0	0	0	0	0	2	0	0
6	104	2	110	0	0	0	0	0	0	0	0	0	0	0	0	0	0	2	0	0
6	104	2	111	0	0	0	0	0	0	0	0	0	0	0	0	0	0	2	0	0
6	104	2	112	0	0	0	0	0	0	0	0	0	0	0	0	0	0	2	0	0
6	104	2	113	0	0	0	0	0	0	0	0	0	0	0	0	0	0	2	0	0
6	104	2	114	0	0	0	0	0	0	0	0	0	0	0	0	0	0	2	0	0
6	104	2	115	0	0	0	0	0	0	0	0	0	0	0	0	0	0	2	0	0
6	104	2	116	0	0	0	0	0	0	0	0	0	0	0	0	0	0	2	0	0
6	105	2	110	0	0	0	0	0	0	0	0	0	0	0	0	0	0	2	0	0
6	105	2	111	0	0	0	0	0	0	0	0	0	0	0	0	0	0	2	0	0
6	105	2	112	0	0	0	0	0	0	0	0	0	0	0	0	0	0	2	0	0
6	105	2	113	0	0	0	0	0	0	0	0	0	0	0	0	0	0	2	0	0
6	105	2	114	0	0	0	0	0	0	0	0	0	0	0	0	0	0	2	0	0
6	105	2	115	0	0	0	0	0	0	0	0	0	0	0	0	0	0	2	0	0
6	105	2	116	0	0	0	0	0	0	0	0	0	0	0	0	0	0	2	0	0
6	105	2	117	0	0	0	0	0	0	0	0	0	0	0	0	0	0	2	0	0
6	106	2	111	0	0	0	0	0	0	0	0	0	0	0	0	0	0	2	0	0
6	106	2	112	0	0	0	0	0	0	0	0	0	0	0	0	0	0	2	0	0
6	106	2	113	0	0	0	0	0	0	0	0	0	0	0	0	0	0	2	0	0
6	106	2	114	0	0	0	0	0	0	0	0	0	0	0	0	0	0	2	0	0
6	106	2	115	0	0	0	0	0	0	0	0	0	0	0	0	0	0	2	0	0
6	106	2	116	0	0	0	0	0	0	0	0	0	0	0	0	0	0	2	0	0
6	106	2	117	0	0	0	0	0	0	0	0	0	0	0	0	0	0	2	0	0
6	106	2	118	0	0	0	0	0	0	0	0	0	0	0	0	0	0	2	0	0
6	107	2	112	0	0	0	0	0	0	0	0	0	0	0	0	0	0	2	0	0
6	107	2	113	0	0	0	0	0	0	0	0	0	0	0	0	0	0	2	0	0
6	107	2	114	0	0	0	0	0	0	0	0	0	0	0	0	0	0	2	0	0
6	107	2	115	0	0	0	0	0	0	0	0	0	0	0	0	0	0	2	0	0
6	107	2	116	0	0	0	0	0	0	0	0	0	0	0	0	0	0	2	0	0
6	107	2	117	0	0	0	0	0	0	0	0	0	0	0	0	0	0	2	0	0
6	107	2	118	0	0	0	0	0	0	0	0	0	0	0	0	0	0	2	0	0
6	107	2	119	0	0	0	0	0	0	0	0	0	0	0	0	0	0	2	0	0
6	108	2	113	0	0	0	0	0	0	0	0	0	0	0	0	0	0	2	0	0
6	108	2	114	0	0	0	0	0	0	0	0	0	0	0	0	0	0	2	0	0
6	108	2	115	0	0	0	0	0	0	0	0	0	0	0	0	0	0	2	0	0
6	108	2	116	0	0	0	0	0	0	0	0	0	0	0	0	0	0	2	0	0
6	108	2	117	0	0	0	0	0	0	0	0	0	0	0	0	0	0	2	0	0
6	108	2	118	0	0	0	0	0	0	0	0	0	0	0	0	0	0	2	0	0
6	108	2	119	0	0	0	0	0	0	0	0	0	0	0	0	0	0	2	0	0
6	108	2	120	0	0	0	0	0	0	0	0	0	0	0	0	0	0	2	0	0
6	109	2	114	0	0	0	0	0	0	0	0	0	0	0	0	0	0	2	0	0
6	109	2	115	0	0	0	0	0	0	0	0	0	0	0	0	0	0	2	0	0
6	109	2	116	0	0	0	0	0	0	0	0	0	0	0	0	0	0	2	0	0
6	109	2	117	0	0	0	0	0	0	0	0	0	0	0	0	0	0	2	0	0
6	109	2	118	0	0	0	0	0	0	0	0	0	0	0	0	0	0	2	0	0
6	109	2	119	0	0	0	0	0	0	0	0	0	0	0	0	0	0	2	0	0
6	109	2	120	0	0	0	0	0	0	0	0	0	0	0	0	0	0	2	0	0
6	110	2	115	0	0	0	0	0	0	0	0	0	0	0	0	0	0	2	0	0
6	110	2	116	0	0	0	0	0	0	0	0	0	0	0	0	0	0	2	0	0
6	110	2	117	0	0	0	0	0	0	0	0	0	0	0	0	0	0	2	0	0
6	110	2	118	0	0	0	0	0	0	0	0	0	0	0	0	0	0	2	0	0
6	110	2	119	0	0	0	0	0	0	0	0	0	0	0	0	0	0	2	0	0
6	110	2	120	0	0	0	0	0	0	0	0	0	0	0	0	0	0	2	0	0
6	111	2	116	0	0	0	0	0	0	0	0	0	0	0	0	0	0	2	0	0
6	111	2	117	0	0	0	0	0	0	0	0	0	0	0	0	0	0	2	0	0
6	111	2	118	0	0	0	0	0	0	0	0	0	0	0	0	0	0	2	0	0
6	111	2	119	0	0	0	0	0	0	0	0	0	0	0	0	0	0	2	0	0
6	111	2	120	0	0	0	0	0	0	0	0	0	0	0	0	0	0	2	0	0
6	112	2	117	0	0	0	0	0	0	0	0	0	0	0	0	0	0	2	0	0
6	112	2	118	0	0	0	0	0	0	0	0	0	0	0	0	0	0	2	0	0
6	112	2	119	0	0	0	0	0	0	0	0	0	0	0	0	0	0	2	0	0
6	112	2	120	0	0	0	0	0	0	0	0	0	0	0	0	0	0	2	0	0
6	113	2	118	0	0	0	0	0	0	0	0	0	0	0	0	0	0	2	0	0
6	113	2	119	0	0	0	0	0	0	0	0	0	0	0	0	0	0	2	0	0
6	113	2	120	0	0	0	0	0	0	0	0	0	0	0	0	0	0	2	0	0
6	114	2	119	0	0	0	0	0	0	0	0	0	0	0	0	0	0	2	0	0
6	114	2	120	0	0	0	0	0	0	0	0	0	0	0	0	0	0	2	0	0
6	115	2	120	0	0	0	0	0	0	0	0	0	0	0	0	0	0	2	0	0